(declare-fun temp914_1 () (_ BitVec 64))
(declare-fun var154683 () (_ BitVec 64))
(declare-fun k!0 () Bool)
(declare-fun ARGNAME_source_NAMEEND_LEN () (_ BitVec 64))
(declare-fun ARGNAME_destination_NAMEEND_LEN () (_ BitVec 64))
(declare-fun temp914_3 () (_ BitVec 64))
(declare-fun temp914_2 () (_ BitVec 64))
(declare-fun temp914_4 () (_ BitVec 64))
(declare-fun var266826 () (_ BitVec 64))
(declare-fun var266828 () (_ BitVec 64))
(declare-fun temp914_6 () (_ BitVec 64))
(declare-fun temp914_5 () (_ BitVec 64))
(declare-fun temp914_7 () (_ BitVec 64))
(declare-fun var594506 () (_ BitVec 64))
(declare-fun var594508 () (_ BitVec 64))
(declare-fun temp914_9 () (_ BitVec 64))
(declare-fun temp914_8 () (_ BitVec 64))
(declare-fun temp914_10 () (_ BitVec 64))
(declare-fun var1053642 () (_ BitVec 64))
(declare-fun temp914_12 () (_ BitVec 64))
(declare-fun temp914_11 () (_ BitVec 64))
(declare-fun temp914_13 () (_ BitVec 64))
(declare-fun var1774538 () (_ BitVec 64))
(declare-fun temp914_14 () (_ BitVec 64))
(declare-fun var2429514 () (_ BitVec 64))
(declare-fun temp914_15 () (_ BitVec 64))
(declare-fun var3871306 () (_ BitVec 64))
(declare-fun temp914_16 () (_ BitVec 64))
(declare-fun ARGNAME_input_NAMEEND_DIM () (_ BitVec 64))
(declare-fun var154805 () (_ BitVec 64))
(declare-fun temp914_17 () (_ BitVec 64))
(declare-fun temp914_19 () (_ BitVec 64))
(declare-fun temp914_18 () (_ BitVec 64))
(declare-fun temp914_20 () (_ BitVec 64))
(declare-fun var5313098 () (_ BitVec 64))
(declare-fun var5313100 () (_ BitVec 64))
(declare-fun temp914_22 () (_ BitVec 64))
(declare-fun temp914_21 () (_ BitVec 64))
(declare-fun temp914_23 () (_ BitVec 64))
(declare-fun var5640778 () (_ BitVec 64))
(declare-fun var5640780 () (_ BitVec 64))
(declare-fun temp914_25 () (_ BitVec 64))
(declare-fun temp914_24 () (_ BitVec 64))
(declare-fun temp914_26 () (_ BitVec 64))
(declare-fun var6361674 () (_ BitVec 64))
(declare-fun var6361676 () (_ BitVec 64))
(declare-fun temp914_28 () (_ BitVec 64))
(declare-fun temp914_27 () (_ BitVec 64))
(declare-fun var7214021 () (_ BitVec 64))
(declare-fun temp914_29 () (_ BitVec 64))
(declare-fun temp914_30 () (_ BitVec 64))
(declare-fun var7279562 () (_ BitVec 64))
(declare-fun temp914_32 () (_ BitVec 64))
(declare-fun temp914_31 () (_ BitVec 64))
(declare-fun temp914_34 () (_ BitVec 64))
(declare-fun temp914_33 () (_ BitVec 64))
(declare-fun temp914_36 () (_ BitVec 64))
(declare-fun temp914_35 () (_ BitVec 64))
(declare-fun temp914_38 () (_ BitVec 64))
(declare-fun temp914_37 () (_ BitVec 64))
(declare-fun var154934 () (_ BitVec 64))
(declare-fun var8850297 () (_ BitVec 64))
(declare-fun temp914_40 () (_ BitVec 64))
(declare-fun temp914_39 () (_ BitVec 64))
(declare-fun var8916289 () (_ BitVec 64))
(declare-fun var8916290 () (_ BitVec 64))
(declare-fun temp914_41 () (_ BitVec 64))
(declare-fun temp914_42 () (_ BitVec 64))
(declare-fun var8981831 () (_ BitVec 64))
(declare-fun var9047378 () (_ BitVec 64))
(assert (= var154683
   (ite (= ARGNAME_source_NAMEEND_LEN ARGNAME_destination_NAMEEND_LEN)
        #x0000000000000001
        #x0000000000000000)))
(assert (= temp914_1 #x0000000000000001))
(assert (= var154683 temp914_1))
(assert (= temp914_3 #x0000000000000000))
(assert (= temp914_2 temp914_3))
(assert (= temp914_4 #x0000000000000005))
(assert (= var266826 temp914_4))
(assert (= var266828 var266826))
(assert (= temp914_6 #x0000000000000000))
(assert (= temp914_5 temp914_6))
(assert (= temp914_7 #x0000000000000005))
(assert (= var594506 temp914_7))
(assert (= var594508 var594506))
(assert (= temp914_9 #x0000000000000000))
(assert (= temp914_8 temp914_9))
(assert (= temp914_10 #x0000000000000000))
(assert (= var1053642 temp914_10))
(assert (= temp914_12 #x0000000000000000))
(assert (= temp914_11 temp914_12))
(assert (= temp914_13 #x0000000000000000))
(assert (= var1774538 temp914_13))
(assert (= temp914_14 #x0000000000000005))
(assert (= var2429514 temp914_14))
(assert (= temp914_15 #x0000000000000005))
(assert (= var3871306 temp914_15))
(assert (= temp914_16 #x0000000000000000))
(assert (= var154805
   (ite (= ARGNAME_input_NAMEEND_DIM temp914_16)
        #x0000000000000001
        #x0000000000000000)))
(assert (= temp914_17 #x0000000000000000))
(assert (= var154805 temp914_17))
(assert (= temp914_19 #x0000000000000000))
(assert (= temp914_18 temp914_19))
(assert (= temp914_20 #x0000000000000005))
(assert (= var5313098 temp914_20))
(assert (= var5313100 var5313098))
(assert (= temp914_22 #x0000000000000000))
(assert (= temp914_21 temp914_22))
(assert (= temp914_23 #x0000000000000005))
(assert (= var5640778 temp914_23))
(assert (= var5640780 var5640778))
(assert (= temp914_25 #x0000000000000000))
(assert (= temp914_24 temp914_25))
(assert (= temp914_26 #x0000000000000005))
(assert (= var6361674 temp914_26))
(assert (= var6361676 var6361674))
(assert (= temp914_28 #x0000000000000000))
(assert (= temp914_27 temp914_28))
(assert (= var7214021
   (ite (bvslt temp914_27 ARGNAME_source_NAMEEND_LEN)
        #x0000000000000001
        #x0000000000000000)))
(assert (= temp914_29
   (ite (= var7214021 #x0000000000000001) ARGNAME_source_NAMEEND_LEN temp914_27)))
(assert (= temp914_30 #x0000000000000000))
(assert (= var7279562 temp914_30))
(assert (= temp914_32 #xffffffffffffffff))
(assert (= temp914_31 temp914_32))
(assert (= temp914_34 #xffffffffffffffff))
(assert (= temp914_33 temp914_34))
(assert (= temp914_36 #xffffffffffffffff))
(assert (= temp914_35 temp914_36))
(assert (= temp914_38 #xffffffffffffffff))
(assert (= temp914_37 temp914_38))
(assert (= var154934 (bvsub ARGNAME_input_NAMEEND_DIM ARGNAME_source_NAMEEND_LEN)))
(assert (= var8850297 var154934))
(assert (= temp914_40 #x0000000000000000))
(assert (= temp914_39 temp914_40))
(assert (= var8916289 var8850297))
(assert (= var8916290
   (ite (bvslt temp914_39 var8916289) #x0000000000000001 #x0000000000000000)))
(assert (= temp914_41 (ite (= var8916290 #x0000000000000001) var8850297 temp914_39)))
(assert (= temp914_42 #x0000000000000000))
(assert (= var8981831 temp914_42))
(assert (= var9047378 var8981831))
(model-add temp914_1 () (_ BitVec 64) #x0000000000000001)
(model-add var154683 () (_ BitVec 64) #x0000000000000001)
(model-del k!0)
(model-add ARGNAME_source_NAMEEND_LEN
           ()
           (_ BitVec 64)
           (ite k!0
                ARGNAME_destination_NAMEEND_LEN
                (bvnot ARGNAME_destination_NAMEEND_LEN)))






